c uprop, v00.0, 
c reading from data/prog719.c.cnf
c done reading: 0.004038
p cnf 102 409
-53 -72 0
-56 -72 0
53 56 72 0
53 56 -78 0
-53 -56 -78 0
-53 56 78 0
53 -56 78 0
-61 72 0
-61 -63 0
61 63 -72 0
63 -67 -72 0
-63 -67 72 0
63 67 72 0
-63 67 -72 0
61 -71 0
-71 -74 0
-61 71 74 0
-61 74 -76 0
61 -74 -76 0
61 74 76 0
-61 -74 76 0
71 -77 0
-77 -79 0
-71 77 79 0
-55 -71 79 0
-55 71 -79 0
55 71 79 0
55 -71 -79 0
-51 77 0
-51 -59 0
51 59 -77 0
-50 59 -77 0
-50 -59 77 0
50 59 77 0
50 -59 -77 0
-49 51 0
-49 -65 0
49 -51 65 0
-48 -51 65 0
-48 51 -65 0
48 51 65 0
48 -51 -65 0
-47 49 0
-47 -69 0
47 -49 69 0
-46 -49 69 0
-46 49 -69 0
46 49 69 0
46 -49 -69 0
-45 63 0
-45 53 0
45 -53 -63 0
-44 -53 -63 0
-44 53 63 0
44 53 -63 0
44 -53 63 0
43 -56 -74 0
43 -45 -74 0
43 -45 -56 0
-43 56 74 0
-43 45 74 0
-43 45 56 0
-42 -43 74 0
-42 -43 56 0
-42 -43 45 0
42 43 -74 0
42 43 -56 0
42 43 -45 0
42 -45 -56 -74 0
-42 45 56 74 0
41 -63 -79 0
41 -43 -79 0
41 -43 -63 0
-41 63 79 0
-41 43 79 0
-41 43 63 0
-40 -41 79 0
-40 -41 63 0
-40 -41 43 0
40 41 -79 0
40 41 -63 0
40 41 -43 0
40 -43 -63 -79 0
-40 43 63 79 0
39 -59 -74 0
39 -41 -59 0
39 -41 -74 0
-39 59 74 0
-39 41 59 0
-39 41 74 0
-39 59 -81 0
-39 74 -81 0
-39 41 -81 0
39 -59 81 0
39 -74 81 0
39 -41 81 0
-41 -59 -74 81 0
41 59 74 -81 0
-65 -79 82 0
-39 -65 82 0
-39 -79 82 0
65 79 -82 0
39 65 -82 0
39 79 -82 0
65 -82 -83 0
79 -82 -83 0
39 -82 -83 0
-65 82 83 0
-79 82 83 0
-39 82 83 0
-39 -65 -79 83 0
39 65 79 -83 0
-59 -69 84 0
-69 -82 84 0
-59 -82 84 0
59 69 -84 0
69 82 -84 0
59 82 -84 0
69 -84 -85 0
59 -84 -85 0
82 -84 -85 0
-69 84 85 0
-59 84 85 0
-82 84 85 0
-59 -69 -82 85 0
59 69 82 -85 0
65 -86 0
84 -86 0
-65 -84 86 0
-54 -65 -84 0
-54 65 84 0
54 -65 84 0
54 65 -84 0
-57 69 0
-57 86 0
57 -69 -86 0
-64 -69 -86 0
-64 69 86 0
64 -69 86 0
64 69 -86 0
-53 -75 0
-56 -75 0
53 56 75 0
53 56 -80 0
-53 -56 -80 0
-53 56 80 0
53 -56 80 0
-60 75 0
-44 -60 0
44 60 -75 0
44 -66 -75 0
-44 -66 75 0
44 66 75 0
-44 66 -75 0
60 -70 0
-42 -70 0
42 -60 70 0
42 -60 -87 0
-42 60 -87 0
42 60 87 0
-42 -60 87 0
70 -88 0
-40 -88 0
40 -70 88 0
40 -70 -89 0
-40 70 -89 0
40 70 89 0
-40 -70 89 0
88 -91 0
-81 -91 0
81 -88 91 0
81 -88 -92 0
-81 88 -92 0
81 88 92 0
-81 -88 92 0
91 -93 0
-83 -93 0
83 -91 93 0
83 -91 -94 0
-83 91 -94 0
83 91 94 0
-83 -91 94 0
93 -95 0
-85 -95 0
85 -93 95 0
85 -93 -96 0
-85 93 -96 0
85 93 96 0
-85 -93 96 0
95 -97 0
-54 -97 0
54 -95 97 0
54 -95 -98 0
-54 95 -98 0
54 95 98 0
-54 -95 98 0
97 -99 0
-64 -99 0
64 -97 99 0
64 -97 -100 0
-64 97 -100 0
64 97 100 0
-64 -97 100 0
99 -101 0
-57 -101 0
57 -99 101 0
57 -99 -102 0
-57 99 -102 0
57 99 102 0
-57 -99 102 0
-38 -90 0
38 90 0
-35 -37 0
35 37 0
-33 -34 0
33 34 0
-30 -32 0
30 32 0
-28 -29 0
28 29 0
-25 -27 0
25 27 0
24 -90 0
-24 90 0
-23 -24 90 0
-23 -24 0
23 24 -90 0
23 24 0
22 -37 -90 0
22 -24 -37 0
22 -24 -90 0
-22 37 90 0
-22 24 37 0
-22 24 90 0
-21 -22 37 0
-21 -22 90 0
-21 -22 24 0
21 22 -37 0
21 22 -90 0
21 22 -24 0
21 -24 -37 -90 0
-21 24 37 90 0
20 -34 -37 0
20 -22 -34 0
20 -22 -37 0
-20 34 37 0
-20 22 34 0
-20 22 37 0
-19 -20 34 0
-19 -20 37 0
-19 -20 22 0
19 20 -34 0
19 20 -37 0
19 20 -22 0
19 -22 -34 -37 0
-19 22 34 37 0
18 -32 -34 0
18 -20 -32 0
18 -20 -34 0
-18 32 34 0
-18 20 32 0
-18 20 34 0
-17 -18 32 0
-17 -18 34 0
-17 -18 20 0
17 18 -32 0
17 18 -34 0
17 18 -20 0
17 -20 -32 -34 0
-17 20 32 34 0
16 -29 -32 0
16 -18 -29 0
16 -18 -32 0
-16 29 32 0
-16 18 29 0
-16 18 32 0
-15 -16 29 0
-15 -16 32 0
-15 -16 18 0
15 16 -29 0
15 16 -32 0
15 16 -18 0
15 -18 -29 -32 0
-15 18 29 32 0
14 -27 -29 0
14 -16 -27 0
14 -16 -29 0
-14 27 29 0
-14 16 27 0
-14 16 29 0
-13 -14 27 0
-13 -14 29 0
-13 -14 16 0
13 14 -27 0
13 14 -29 0
13 14 -16 0
13 -16 -27 -29 0
-13 16 27 29 0
-12 27 0
-12 14 0
12 -14 -27 0
-11 -14 -27 0
-11 14 27 0
11 14 -27 0
11 -14 27 0
-10 -23 0
10 23 0
-9 -21 0
9 21 0
-8 -19 0
8 19 0
-7 -17 0
7 17 0
-6 -15 0
6 15 0
-5 -13 0
5 13 0
-11 -52 0
11 52 0
-12 -62 0
12 62 0
53 -73 0
23 -73 0
-23 -53 73 0
23 -53 0
-23 53 0
-21 -56 58 0
-56 58 -73 0
-21 58 -73 0
21 56 -58 0
56 -58 73 0
21 -58 73 0
-56 58 0
-21 58 0
58 -73 0
-21 -56 -73 0
-19 -44 68 0
-44 -58 68 0
-19 -58 68 0
19 44 -68 0
44 58 -68 0
19 58 -68 0
-44 68 0
-19 68 0
-58 68 0
-19 -44 -58 0
4 -17 -42 0
4 -42 -68 0
4 -17 -68 0
-4 17 42 0
-4 42 68 0
-4 17 68 0
-4 42 0
-4 17 0
-4 68 0
17 42 68 0
-15 36 -40 0
-4 36 -40 0
-4 -15 36 0
15 -36 40 0
4 -36 40 0
4 15 -36 0
36 -40 0
-15 36 0
-4 36 0
-4 -15 -40 0
-13 31 -81 0
31 -36 -81 0
-13 31 -36 0
13 -31 81 0
-31 36 81 0
13 -31 36 0
31 -81 0
-13 31 0
31 -36 0
-13 -36 -81 0
-11 26 -83 0
26 -31 -83 0
-11 26 -31 0
11 -26 83 0
-26 31 83 0
11 -26 31 0
26 -83 0
-11 26 0
26 -31 0
-11 -31 -83 0
3 -12 -85 0
3 -26 -85 0
3 -12 -26 0
-3 12 85 0
-3 26 85 0
-3 12 26 0
3 -85 0
3 -12 0
3 -26 0
-12 -26 -85 0
-2 54 0
-2 3 0
2 -3 -54 0
3 -54 0
-3 54 0
-1 64 0
-1 2 0
1 -2 -64 0
2 -64 0
-2 64 0
-1 -57 0
1 -57 0
-1 57 0
